p edge 20 36 8
v 3 1 5 19
v 3 3 11 20
v 4 4 6 7 12
v 1 16
v 4 8 10 14 15
v 2 9 17
v 1 18
v 2 2 13
e 1 4
e 1 12
e 1 17
e 1 20
e 2 11
e 2 14
e 2 16
e 2 17
e 2 18
e 3 11
e 3 14
e 3 15
e 3 16
e 4 8
e 4 13
e 4 17
e 6 8
e 6 13
e 6 15
e 7 13
e 7 14
e 7 16
e 9 10
e 9 12
e 9 13
e 10 14
e 11 20
e 12 13
e 12 17
e 12 20
e 13 15
e 13 16
e 15 17
e 16 19
e 17 18
e 17 19
